0 0 0 0
0 1 1 0
0 2 0 0
0 3 0 0
0 4 2 1
0 5 2 6
0 6 2 9
0 7 2 3
0 8 2 1
0 9 2 9
0 10 1 9
0 11 2 11
0 12 0 3
0 13 2 18
0 14 2 3
0 15 2 10
0 16 0 19
0 17 0 17
0 18 0 13
0 19 2 6
0 20 2 10
0 21 1 11
0 22 1 17
0 23 0 19
0 24 0 17
0 25 0 19
0 26 0 19
0 27 0 20
0 28 0 23
0 29 0 21
0 30 0 22
0 31 0 24
